NAME : lr208.734844.tour
COMMENT : Cost = 0_734844
COMMENT : Found by LKH [Keld Helsgaun] Fri Sep 15 17:42:02 2017
TYPE : TOUR
DIMENSION : 102
TOUR_SECTION
1
53
19
61
84
83
8
49
20
12
63
11
89
32
70
28
54
29
77
4
80
34
82
10
52
21
67
66
72
36
35
79
30
25
55
56
26
5
73
75
74
22
41
59
14
98
38
101
99
60
97
7
90
102
95
96
93
43
44
16
58
42
23
76
24
68
40
57
3
88
100
94
86
92
45
15
39
87
17
62
6
85
18
46
9
47
48
37
50
65
64
91
33
31
71
2
51
78
69
81
13
27
-1
EOF
